\ Model compact
\ LP format - for model browsing. Use MPS format to capture full model detail.
Minimize
  C
Subject To
 ord(0,1): - x(0,1) + x(0,2) >= 7
 ord(0,2): x(0,0) - x(0,2) >= 7
 ord(1,1): x(1,0) - x(1,1) >= 4
 ord(1,2): - x(1,0) + x(1,2) >= 3
 ord(2,1): - x(2,1) + x(2,2) >= 7
 ord(2,2): x(2,0) - x(2,2) >= 6
 triangle2(0,1,0): y(0,1,0) + y(1,0,0) = 1
 triangle2(0,1,1): y(0,1,1) + y(1,0,1) = 1
 triangle2(0,1,2): y(0,1,2) + y(1,0,2) = 1
 triangle2(0,2,0): y(0,2,0) + y(2,0,0) = 1
 triangle2(0,2,1): y(0,2,1) + y(2,0,1) = 1
 triangle2(0,2,2): y(0,2,2) + y(2,0,2) = 1
 triangle2(1,2,0): y(1,2,0) + y(2,1,0) = 1
 triangle2(1,2,1): y(1,2,1) + y(2,1,1) = 1
 triangle2(1,2,2): y(1,2,2) + y(2,1,2) = 1
 MCLinV(0,1,0): - x(0,0) + v(0,1,0)p - v(0,1,0)n + x(1,0) = -3
 MCLinV(1,0,0): x(0,0) + v(1,0,0)p - v(1,0,0)n - x(1,0) = -1
 MCLin1(0,1,0): u(0,1,0)p - u(0,1,0)n >= -0
 MCLin2(0,1,0): 23 y(1,0,0) + u(0,1,0)p - u(0,1,0)n >= -0
 MCLin3(0,1,0): - 36 y(1,0,0) - v(0,1,0)p + v(0,1,0)n + u(0,1,0)p
   - u(0,1,0)n >= -36
 MCLin4(0,1,0): - 36 y(1,0,0) + u(0,1,0)p - u(0,1,0)n <= -0
 MCLin5(0,1,0): 23 y(1,0,0) - v(0,1,0)p + v(0,1,0)n + u(0,1,0)p - u(0,1,0)n
   <= 23
 MCLin6(1,0,0): u(1,0,0)p - u(1,0,0)n >= -0
 MCLin7(1,0,0): 40 y(0,1,0) + u(1,0,0)p - u(1,0,0)n >= -0
 MCLin8(1,0,0): - 19 y(0,1,0) - v(1,0,0)p + v(1,0,0)n + u(1,0,0)p
   - u(1,0,0)n >= -19
 MCLin9(1,0,0): - 19 y(0,1,0) + u(1,0,0)p - u(1,0,0)n <= -0
 MCLin10(1,0,0): 40 y(0,1,0) - v(1,0,0)p + v(1,0,0)n + u(1,0,0)p
   - u(1,0,0)n <= 40
 MCLinV(0,1,1): - x(0,1) + v(0,1,1)p - v(0,1,1)n + x(1,1) = -4
 MCLinV(1,0,1): x(0,1) + v(1,0,1)p - v(1,0,1)n - x(1,1) = -7
 MCLin1(0,1,1): u(0,1,1)p - u(0,1,1)n >= -0
 MCLin2(0,1,1): 34 y(1,0,1) + u(0,1,1)p - u(0,1,1)n >= -0
 MCLin3(0,1,1): - 25 y(1,0,1) - v(0,1,1)p + v(0,1,1)n + u(0,1,1)p
   - u(0,1,1)n >= -25
 MCLin4(0,1,1): - 25 y(1,0,1) + u(0,1,1)p - u(0,1,1)n <= -0
 MCLin5(0,1,1): 34 y(1,0,1) - v(0,1,1)p + v(0,1,1)n + u(0,1,1)p - u(0,1,1)n
   <= 34
 MCLin6(1,0,1): u(1,0,1)p - u(1,0,1)n >= -0
 MCLin7(1,0,1): 36 y(0,1,1) + u(1,0,1)p - u(1,0,1)n >= -0
 MCLin8(1,0,1): - 23 y(0,1,1) - v(1,0,1)p + v(1,0,1)n + u(1,0,1)p
   - u(1,0,1)n >= -23
 MCLin9(1,0,1): - 23 y(0,1,1) + u(1,0,1)p - u(1,0,1)n <= -0
 MCLin10(1,0,1): 36 y(0,1,1) - v(1,0,1)p + v(1,0,1)n + u(1,0,1)p
   - u(1,0,1)n <= 36
 MCLinV(0,1,2): - x(0,2) + v(0,1,2)p - v(0,1,2)n + x(1,2) = -7
 MCLinV(1,0,2): x(0,2) + v(1,0,2)p - v(1,0,2)n - x(1,2) = -7
 MCLin1(0,1,2): u(0,1,2)p - u(0,1,2)n >= -0
 MCLin2(0,1,2): 37 y(1,0,2) + u(0,1,2)p - u(0,1,2)n >= -0
 MCLin3(0,1,2): - 22 y(1,0,2) - v(0,1,2)p + v(0,1,2)n + u(0,1,2)p
   - u(0,1,2)n >= -22
 MCLin4(0,1,2): - 22 y(1,0,2) + u(0,1,2)p - u(0,1,2)n <= -0
 MCLin5(0,1,2): 37 y(1,0,2) - v(0,1,2)p + v(0,1,2)n + u(0,1,2)p - u(0,1,2)n
   <= 37
 MCLin6(1,0,2): u(1,0,2)p - u(1,0,2)n >= -0
 MCLin7(1,0,2): 36 y(0,1,2) + u(1,0,2)p - u(1,0,2)n >= -0
 MCLin8(1,0,2): - 23 y(0,1,2) - v(1,0,2)p + v(1,0,2)n + u(1,0,2)p
   - u(1,0,2)n >= -23
 MCLin9(1,0,2): - 23 y(0,1,2) + u(1,0,2)p - u(1,0,2)n <= -0
 MCLin10(1,0,2): 36 y(0,1,2) - v(1,0,2)p + v(1,0,2)n + u(1,0,2)p
   - u(1,0,2)n <= 36
 MCLinV(0,2,0): - x(0,0) + v(0,2,0)p - v(0,2,0)n + x(2,0) = -2
 MCLinV(2,0,0): x(0,0) + v(2,0,0)p - v(2,0,0)n - x(2,0) = -1
 MCLin1(0,2,0): u(0,2,0)p - u(0,2,0)n >= -0
 MCLin2(0,2,0): 30 y(2,0,0) + u(0,2,0)p - u(0,2,0)n >= -0
 MCLin3(0,2,0): - 28 y(2,0,0) - v(0,2,0)p + v(0,2,0)n + u(0,2,0)p
   - u(0,2,0)n >= -28
 MCLin4(0,2,0): - 28 y(2,0,0) + u(0,2,0)p - u(0,2,0)n <= -0
 MCLin5(0,2,0): 30 y(2,0,0) - v(0,2,0)p + v(0,2,0)n + u(0,2,0)p - u(0,2,0)n
   <= 30
 MCLin6(2,0,0): u(2,0,0)p - u(2,0,0)n >= -0
 MCLin7(2,0,0): 31 y(0,2,0) + u(2,0,0)p - u(2,0,0)n >= -0
 MCLin8(2,0,0): - 27 y(0,2,0) - v(2,0,0)p + v(2,0,0)n + u(2,0,0)p
   - u(2,0,0)n >= -27
 MCLin9(2,0,0): - 27 y(0,2,0) + u(2,0,0)p - u(2,0,0)n <= -0
 MCLin10(2,0,0): 31 y(0,2,0) - v(2,0,0)p + v(2,0,0)n + u(2,0,0)p
   - u(2,0,0)n <= 31
 MCLinV(0,2,1): - x(0,1) + v(0,2,1)p - v(0,2,1)n + x(2,1) = -7
 MCLinV(2,0,1): x(0,1) + v(2,0,1)p - v(2,0,1)n - x(2,1) = -7
 MCLin1(0,2,1): u(0,2,1)p - u(0,2,1)n >= -0
 MCLin2(0,2,1): 36 y(2,0,1) + u(0,2,1)p - u(0,2,1)n >= -0
 MCLin3(0,2,1): - 22 y(2,0,1) - v(0,2,1)p + v(0,2,1)n + u(0,2,1)p
   - u(0,2,1)n >= -22
 MCLin4(0,2,1): - 22 y(2,0,1) + u(0,2,1)p - u(0,2,1)n <= -0
 MCLin5(0,2,1): 36 y(2,0,1) - v(0,2,1)p + v(0,2,1)n + u(0,2,1)p - u(0,2,1)n
   <= 36
 MCLin6(2,0,1): u(2,0,1)p - u(2,0,1)n >= -0
 MCLin7(2,0,1): 36 y(0,2,1) + u(2,0,1)p - u(2,0,1)n >= -0
 MCLin8(2,0,1): - 22 y(0,2,1) - v(2,0,1)p + v(2,0,1)n + u(2,0,1)p
   - u(2,0,1)n >= -22
 MCLin9(2,0,1): - 22 y(0,2,1) + u(2,0,1)p - u(2,0,1)n <= -0
 MCLin10(2,0,1): 36 y(0,2,1) - v(2,0,1)p + v(2,0,1)n + u(2,0,1)p
   - u(2,0,1)n <= 36
 MCLinV(0,2,2): - x(0,2) + v(0,2,2)p - v(0,2,2)n + x(2,2) = -6
 MCLinV(2,0,2): x(0,2) + v(2,0,2)p - v(2,0,2)n - x(2,2) = -7
 MCLin1(0,2,2): u(0,2,2)p - u(0,2,2)n >= -0
 MCLin2(0,2,2): 35 y(2,0,2) + u(0,2,2)p - u(0,2,2)n >= -0
 MCLin3(0,2,2): - 23 y(2,0,2) - v(0,2,2)p + v(0,2,2)n + u(0,2,2)p
   - u(0,2,2)n >= -23
 MCLin4(0,2,2): - 23 y(2,0,2) + u(0,2,2)p - u(0,2,2)n <= -0
 MCLin5(0,2,2): 35 y(2,0,2) - v(0,2,2)p + v(0,2,2)n + u(0,2,2)p - u(0,2,2)n
   <= 35
 MCLin6(2,0,2): u(2,0,2)p - u(2,0,2)n >= -0
 MCLin7(2,0,2): 36 y(0,2,2) + u(2,0,2)p - u(2,0,2)n >= -0
 MCLin8(2,0,2): - 22 y(0,2,2) - v(2,0,2)p + v(2,0,2)n + u(2,0,2)p
   - u(2,0,2)n >= -22
 MCLin9(2,0,2): - 22 y(0,2,2) + u(2,0,2)p - u(2,0,2)n <= -0
 MCLin10(2,0,2): 36 y(0,2,2) - v(2,0,2)p + v(2,0,2)n + u(2,0,2)p
   - u(2,0,2)n <= 36
 MCLinV(1,2,0): - x(1,0) + v(1,2,0)p - v(1,2,0)n + x(2,0) = -2
 MCLinV(2,1,0): x(1,0) + v(2,1,0)p - v(2,1,0)n - x(2,0) = -3
 MCLin1(1,2,0): u(1,2,0)p - u(1,2,0)n >= -0
 MCLin2(1,2,0): 40 y(2,1,0) + u(1,2,0)p - u(1,2,0)n >= -0
 MCLin3(1,2,0): - 19 y(2,1,0) - v(1,2,0)p + v(1,2,0)n + u(1,2,0)p
   - u(1,2,0)n >= -19
 MCLin4(1,2,0): - 19 y(2,1,0) + u(1,2,0)p - u(1,2,0)n <= -0
 MCLin5(1,2,0): 40 y(2,1,0) - v(1,2,0)p + v(1,2,0)n + u(1,2,0)p - u(1,2,0)n
   <= 40
 MCLin6(2,1,0): u(2,1,0)p - u(2,1,0)n >= -0
 MCLin7(2,1,0): 24 y(1,2,0) + u(2,1,0)p - u(2,1,0)n >= -0
 MCLin8(2,1,0): - 35 y(1,2,0) - v(2,1,0)p + v(2,1,0)n + u(2,1,0)p
   - u(2,1,0)n >= -35
 MCLin9(2,1,0): - 35 y(1,2,0) + u(2,1,0)p - u(2,1,0)n <= -0
 MCLin10(2,1,0): 24 y(1,2,0) - v(2,1,0)p + v(2,1,0)n + u(2,1,0)p
   - u(2,1,0)n <= 24
 MCLinV(1,2,1): - x(1,1) + v(1,2,1)p - v(1,2,1)n + x(2,1) = -7
 MCLinV(2,1,1): x(1,1) + v(2,1,1)p - v(2,1,1)n - x(2,1) = -4
 MCLin1(1,2,1): u(1,2,1)p - u(1,2,1)n >= -0
 MCLin2(1,2,1): 36 y(2,1,1) + u(1,2,1)p - u(1,2,1)n >= -0
 MCLin3(1,2,1): - 23 y(2,1,1) - v(1,2,1)p + v(1,2,1)n + u(1,2,1)p
   - u(1,2,1)n >= -23
 MCLin4(1,2,1): - 23 y(2,1,1) + u(1,2,1)p - u(1,2,1)n <= -0
 MCLin5(1,2,1): 36 y(2,1,1) - v(1,2,1)p + v(1,2,1)n + u(1,2,1)p - u(1,2,1)n
   <= 36
 MCLin6(2,1,1): u(2,1,1)p - u(2,1,1)n >= -0
 MCLin7(2,1,1): 34 y(1,2,1) + u(2,1,1)p - u(2,1,1)n >= -0
 MCLin8(2,1,1): - 25 y(1,2,1) - v(2,1,1)p + v(2,1,1)n + u(2,1,1)p
   - u(2,1,1)n >= -25
 MCLin9(2,1,1): - 25 y(1,2,1) + u(2,1,1)p - u(2,1,1)n <= -0
 MCLin10(2,1,1): 34 y(1,2,1) - v(2,1,1)p + v(2,1,1)n + u(2,1,1)p
   - u(2,1,1)n <= 34
 MCLinV(1,2,2): - x(1,2) + v(1,2,2)p - v(1,2,2)n + x(2,2) = -6
 MCLinV(2,1,2): x(1,2) + v(2,1,2)p - v(2,1,2)n - x(2,2) = -7
 MCLin1(1,2,2): u(1,2,2)p - u(1,2,2)n >= -0
 MCLin2(1,2,2): 35 y(2,1,2) + u(1,2,2)p - u(1,2,2)n >= -0
 MCLin3(1,2,2): - 24 y(2,1,2) - v(1,2,2)p + v(1,2,2)n + u(1,2,2)p
   - u(1,2,2)n >= -24
 MCLin4(1,2,2): - 24 y(2,1,2) + u(1,2,2)p - u(1,2,2)n <= -0
 MCLin5(1,2,2): 35 y(2,1,2) - v(1,2,2)p + v(1,2,2)n + u(1,2,2)p - u(1,2,2)n
   <= 35
 MCLin6(2,1,2): u(2,1,2)p - u(2,1,2)n >= -0
 MCLin7(2,1,2): 37 y(1,2,2) + u(2,1,2)p - u(2,1,2)n >= -0
 MCLin8(2,1,2): - 22 y(1,2,2) - v(2,1,2)p + v(2,1,2)n + u(2,1,2)p
   - u(2,1,2)n >= -22
 MCLin9(2,1,2): - 22 y(1,2,2) + u(2,1,2)p - u(2,1,2)n <= -0
 MCLin10(2,1,2): 37 y(1,2,2) - v(2,1,2)p + v(2,1,2)n + u(2,1,2)p
   - u(2,1,2)n <= 37
 new(0,1,1): 44 y(0,1,1) - x(1,1) + x(0,2) >= 11
 new(0,2,1): 44 y(0,2,1) - x(2,1) + x(0,2) >= 14
 new(1,0,1): - x(0,1) + 44 y(1,0,1) + x(1,2) >= 11
 new(1,2,1): 44 y(1,2,1) - x(2,1) + x(1,2) >= 11
 new(2,0,1): - x(0,1) + 44 y(2,0,1) + x(2,2) >= 14
 new(2,1,1): - x(1,1) + 44 y(2,1,1) + x(2,2) >= 11
 new(0,1,2): x(0,0) + 44 y(0,1,2) - x(1,2) >= 14
 new(0,2,2): x(0,0) + 44 y(0,2,2) - x(2,2) >= 13
 new(1,0,2): - x(0,0) + 44 y(1,0,0) + x(1,0) >= 4
 new(1,2,2): x(1,0) + 44 y(1,2,0) - x(2,0) >= 5
 new(2,0,2): x(2,0) - x(0,2) + 44 y(2,0,2) >= 13
 new(2,1,2): x(2,0) - x(1,2) + 44 y(2,1,2) >= 13
 makespan(0): C - x(0,0) >= 1
 makespan(1): C - x(1,2) >= 7
 makespan(2): C - x(2,0) >= 2
Bounds
 C <= 44
 14 <= x(0,0) <= 43
 v(0,1,0)p <= 36
 v(0,1,0)n <= 23
 v(1,0,0)p <= 19
 v(1,0,0)n <= 40
 u(0,1,0)p <= 440
 u(0,1,0)n <= 440
 u(1,0,0)p <= 440
 u(1,0,0)n <= 440
 v(0,2,0)p <= 28
 v(0,2,0)n <= 30
 v(2,0,0)p <= 27
 v(2,0,0)n <= 31
 u(0,2,0)p <= 440
 u(0,2,0)n <= 440
 u(2,0,0)p <= 440
 u(2,0,0)n <= 440
 4 <= x(1,0) <= 34
 v(1,2,0)p <= 19
 v(1,2,0)n <= 40
 v(2,1,0)p <= 35
 v(2,1,0)n <= 24
 u(1,2,0)p <= 440
 u(1,2,0)n <= 440
 u(2,1,0)p <= 440
 u(2,1,0)n <= 440
 13 <= x(2,0) <= 42
 x(0,1) <= 29
 v(0,1,1)p <= 25
 v(0,1,1)n <= 34
 v(1,0,1)p <= 23
 v(1,0,1)n <= 36
 u(0,1,1)p <= 440
 u(0,1,1)n <= 440
 u(1,0,1)p <= 440
 u(1,0,1)n <= 440
 v(0,2,1)p <= 22
 v(0,2,1)n <= 36
 v(2,0,1)p <= 22
 v(2,0,1)n <= 36
 u(0,2,1)p <= 440
 u(0,2,1)n <= 440
 u(2,0,1)p <= 440
 u(2,0,1)n <= 440
 x(1,1) <= 30
 v(1,2,1)p <= 23
 v(1,2,1)n <= 36
 v(2,1,1)p <= 25
 v(2,1,1)n <= 34
 u(1,2,1)p <= 440
 u(1,2,1)n <= 440
 u(2,1,1)p <= 440
 u(2,1,1)n <= 440
 x(2,1) <= 29
 7 <= x(0,2) <= 36
 v(0,1,2)p <= 22
 v(0,1,2)n <= 37
 v(1,0,2)p <= 23
 v(1,0,2)n <= 36
 u(0,1,2)p <= 440
 u(0,1,2)n <= 440
 u(1,0,2)p <= 440
 u(1,0,2)n <= 440
 v(0,2,2)p <= 23
 v(0,2,2)n <= 35
 v(2,0,2)p <= 22
 v(2,0,2)n <= 36
 u(0,2,2)p <= 440
 u(0,2,2)n <= 440
 u(2,0,2)p <= 440
 u(2,0,2)n <= 440
 7 <= x(1,2) <= 37
 v(1,2,2)p <= 24
 v(1,2,2)n <= 35
 v(2,1,2)p <= 22
 v(2,1,2)n <= 37
 u(1,2,2)p <= 440
 u(1,2,2)n <= 440
 u(2,1,2)p <= 440
 u(2,1,2)n <= 440
 7 <= x(2,2) <= 36
Binaries
 y(0,1,0) y(1,0,0) y(0,2,0) y(2,0,0) y(1,2,0) y(2,1,0) y(0,1,1) y(1,0,1)
 y(0,2,1) y(2,0,1) y(1,2,1) y(2,1,1) y(0,1,2) y(1,0,2) y(0,2,2) y(2,0,2)
 y(1,2,2) y(2,1,2)
Generals
 C x(0,0) v(0,1,0)p v(0,1,0)n v(1,0,0)p v(1,0,0)n u(0,1,0)p u(0,1,0)n
 u(1,0,0)p u(1,0,0)n v(0,2,0)p v(0,2,0)n v(2,0,0)p v(2,0,0)n u(0,2,0)p
 u(0,2,0)n u(2,0,0)p u(2,0,0)n x(1,0) v(1,2,0)p v(1,2,0)n v(2,1,0)p
 v(2,1,0)n u(1,2,0)p u(1,2,0)n u(2,1,0)p u(2,1,0)n x(2,0) x(0,1) v(0,1,1)p
 v(0,1,1)n v(1,0,1)p v(1,0,1)n u(0,1,1)p u(0,1,1)n u(1,0,1)p u(1,0,1)n
 v(0,2,1)p v(0,2,1)n v(2,0,1)p v(2,0,1)n u(0,2,1)p u(0,2,1)n u(2,0,1)p
 u(2,0,1)n x(1,1) v(1,2,1)p v(1,2,1)n v(2,1,1)p v(2,1,1)n u(1,2,1)p
 u(1,2,1)n u(2,1,1)p u(2,1,1)n x(2,1) x(0,2) v(0,1,2)p v(0,1,2)n v(1,0,2)p
 v(1,0,2)n u(0,1,2)p u(0,1,2)n u(1,0,2)p u(1,0,2)n v(0,2,2)p v(0,2,2)n
 v(2,0,2)p v(2,0,2)n u(0,2,2)p u(0,2,2)n u(2,0,2)p u(2,0,2)n x(1,2)
 v(1,2,2)p v(1,2,2)n v(2,1,2)p v(2,1,2)n u(1,2,2)p u(1,2,2)n u(2,1,2)p
 u(2,1,2)n x(2,2)
End
